c Random generated cnf formula, satisfiable: true
p cnf 10 50
5 -9 -3 0
6 -9 -8 0
-2 -6 -10 0
10 -2 -1 0
9 4 5 0
-1 -2 4 0
5 -10 -6 0
-10 2 -8 0
-5 -7 2 0
-9 -8 6 0
5 7 10 0
4 -5 -8 0
-6 5 1 0
-9 -3 2 0
2 1 9 0
-9 -7 -2 0
-6 9 10 0
-2 -7 4 0
-9 6 1 0
6 4 -7 0
2 4 7 0
1 -4 -9 0
1 4 -5 0
10 -5 3 0
-6 -2 5 0
6 7 8 0
2 -7 9 0
10 -2 5 0
-10 -6 1 0
-2 -7 -5 0
1 -10 -3 0
-6 -9 3 0
-4 -3 -10 0
10 3 -1 0
-2 1 8 0
-8 6 3 0
-2 -6 5 0
4 -9 8 0
2 -7 -8 0
-5 -10 -8 0
4 -9 -3 0
-1 6 -2 0
7 3 10 0
9 7 8 0
9 2 -4 0
8 -9 7 0
-2 -6 5 0
-6 3 -5 0
6 7 -4 0
7 -4 -3 0
